0 31 99
1 56 23
2 88 60
3 48 91
4 37 42
5 57 27
6 98 9
7 25 88
8 69 58
9 8 92
10 10 86
11 52 99
12 98 42
13 55 55
14 47 93
15 28 89
16 93 13
17 3 55
18 81 51
19 91 24
20 35 64
21 16 80
22 36 29
23 93 51
24 65 94
25 35 71
26 18 57
27 2 91
28 2 47
29 75 75
30 0 78
31 18 89
32 22 79
33 84 34
34 36 55
35 32 3
36 87 6
37 54 56
38 16 28
39 61 68
40 96 45
41 14 29
42 80 52
43 15 45
44 81 95
45 48 37
46 17 13
47 56 44